NAME: eil101
COMMENT: Quick (5min) local search tour for eil101 (710.524245262389)
TYPE: TOUR
DIMENSION: 101
TOUR_SECTION: 1 27 69 70 31 88 7 82 48 47 64 63 90 32 10 62 11 19 49 36 46 8 45 17 84 5 60 83 18 52 89 6 94 37 98 91 100 42 87 2 57 15 43 14 44 38 86 16 61 85 93 99 96 59 92 97 95 13 58 26 53 101 40 28 12 68 80 54 4 72 21 73 74 41 22 75 56 23 39 67 25 55 24 29 78 34 35 71 65 66 30 20 51 9 81 33 79 3 77 76 50 -1
EOF